c --- [ banner ] -------------------------------------------------------------
c 
c CaDiCaL Radically Simplified CDCL SAT Solver
c Copyright (c) 2016-2021 A. Biere, M. Fleury, N. Froleyks
c 
c Version 1.5.2 a5f15211db36c3956764e18194dd5bd63bf3b5e6
c g++ (GCC) 9.3.0 -Wall -Wextra -O3 -DNDEBUG
c Fri Oct 21 01:27:37 EDT 2022 Linux gra-login3 3.10.0-1160.66.1.el7.x86_64 x86_64
c 
c --- [ limit ] --------------------------------------------------------------
c 
c setting conflict limit to 200000 conflicts (due to '200000')
c 
c --- [ parsing input ] ------------------------------------------------------
c 
c reading DIMACS file from '33.cubes6100.adj'
c opening file to read '33.cubes6100.adj'
c found 'p cnf 6160 1595474' header
c parsed 1595474 clauses in 19.82 seconds process time
c closing file '33.cubes6100.adj'
c after reading 1457566770 bytes 1390.0 MB
c 
c --- [ options ] ------------------------------------------------------------
c 
c all options are set to their default value
c 
c --- [ solving ] ------------------------------------------------------------
c 
c time measured in process time since initialization
c 
c  seconds    reductions  redundant   irredundant
c          MB     restarts       trail       variables
c            level   conflicts       glue         remaining
c 
c * 19.82 1380  0 0   0    0    0  0% 0 1595422 2397 39%
c { 21.37 1448  0 0   0    0    0  0% 0 1595422 2397 39%
c i 21.41 1448  1 0   0    1    0 12% 0 1595422 2385 39%
c i 24.42 1515 352 0   3   55   48 33% 13 1595422 2384 39%
c i 28.28 1531 161 0  37  189  165 28% 24 1595422 2383 39%
c i 28.49 1533 162 0  39  198  170 28% 24 1595422 2376 39%
c i 28.55 1533 163 0  40  200  171 28% 24 1595422 2375 39%
c i 28.55 1533 165 0  40  204  174 28% 23 1595422 2374 39%
c i 28.60 1533 166 0  40  207  175 28% 24 1595422 2372 39%
c i 29.24 1535 151 0  56  277  242 28% 36 1595422 2368 38%
c - 33.83 1478 143 1  61  301  262 28% 34 262301 2368 38%
c i 33.99 1478 140 1  61  308  267 28% 34 262301 2367 38%
c i 34.00 1478 140 1  61  309  267 28% 33 262301 2366 38%
c i 34.00 1478 139 1  61  310  267 28% 33 262301 2365 38%
c i 35.28 1359 125 1  87  456  399 28% 38 262301 2364 38%
c i 35.30 1359 124 1  87  459  401 28% 38 262301 2363 38%
c i 35.31 1359 124 1  87  461  402 28% 38 262301 2362 38%
c i 35.42 1359 123 1  90  482  420 28% 39 262301 2361 38%
c i 35.53 1359 121 1  93  516  445 28% 39 262301 2360 38%
c i 35.92 1359 113 1  95  619  530 28% 38 262301 2359 38%
c 
c  seconds    reductions  redundant   irredundant
c          MB     restarts       trail       variables
c            level   conflicts       glue         remaining
c 
c i 36.24 1359 97 1  97  844  720 29% 36 262301 2358 38%
c } 36.47 1359 88 1  97 1002  860 29% 33 262301 2358 38%
c [ 36.47 1359  0 1  97 1002  860  0% 0 262301 2358 38%
c O 36.48 1359  1 1  97 1003  860 12% 0 262301 2358 38%
c i 36.48 1359  1 1  97 1003  860 12% 0 262301 2346 38%
c - 37.36 1478 22 2  97 1152  834 28% 16 262030 2346 38%
c i 37.67 1478 25 2  97 1413 1028 31% 21 262030 2345 38%
c i 37.76 1478 25 2  97 1473 1081 31% 21 262030 2344 38%
c - 38.98 1478 24 3  98 2429 1399 54% 20 262026 2344 38%
c ] 39.23 1478 23 3  98 3002 1800 54% 20 262026 2344 38%
c { 39.23 1478 88 3  98 3002 1800 75% 33 262026 2344 38%
c F 39.25 1478 87 3  98 3005 1803 75% 33 262026 2344 38%
c i 39.57 1478 79 3  98 3158 1930 72% 31 262026 2343 38%
c i 39.57 1478 79 3  98 3164 1935 72% 31 262026 2342 38%
c i 39.57 1478 79 3  98 3169 1939 72% 31 262026 2341 38%
c i 40.78 1478 62 3 145 4038 2541 61% 27 262026 2340 38%
c i 41.27 1478 64 3 166 4126 2617 60% 29 262026 2339 38%
c - 41.53 1361 64 4 169 4132 1859 60% 29 262012 2339 38%
c i 42.26 1361 64 4 186 4299 2005 59% 29 262012 2338 38%
c i 42.51 1361 62 4 186 4422 2102 59% 28 262012 2337 38%
c 
c  seconds    reductions  redundant   irredundant
c          MB     restarts       trail       variables
c            level   conflicts       glue         remaining
c 
c i 42.96 1361 61 4 194 4575 2242 58% 29 262012 2336 38%
c i 43.28 1361 61 4 197 4615 2269 58% 29 262012 2335 38%
c i 44.89 1361 62 4 227 4850 2470 57% 29 262012 2334 38%
c i 45.21 1361 62 4 237 4908 2521 57% 29 262012 2333 38%
c i 45.49 1361 62 4 244 4950 2549 56% 29 262012 2332 38%
c d 46.08 1361 62 4 244 5000 2586 56% 29 249024 2328 38%
c 2 46.14 1361 62 4 244 5000 3422 56% 29 249014 2328 38%
c p 53.55 1361 62 4 244 5000 5946 56% 29 249014 2291 37%
c d 53.97 1361 62 4 244 5000 5889 56% 29 248900 2289 37%
c # 56.33 1361 59 4 275 6007 6739 54% 28 248900 2289 37%
c - 57.27 1363 58 5 280 6263 2836 54% 28 248900 2289 37%
c } 57.64 1363 54 5 282 7004 3415 53% 27 248900 2289 37%
c [ 57.64 1363 23 5 282 7004 3415 54% 20 248900 2289 37%
c - 58.37 1363 27 6 283 8777 3129 52% 23 248900 2289 37%
c I 58.91 1363 26 6 284 10008 3813 52% 22 248900 2289 37%
c - 61.67 1364 46 7 286 11710 3642 51% 34 248900 2289 37%
c 2 65.67 1364 44 7 287 15000 7073 51% 33 248899 2289 37%
c p 67.35 1364 44 7 287 15000 9697 51% 33 248899 2289 37%
c ] 67.45 1364 44 7 287 15006 9703 51% 33 248899 2289 37%
c { 67.45 1364 54 7 287 15006 9703 53% 27 248899 2289 37%
c 
c  seconds    reductions   redundant   irredundant
c          MB     restarts        trail       variables
c            level    conflicts       glue         remaining
c 
c B 67.51 1364 54 7 287 15010 9707 53% 27 248899 2289 37%
c - 68.12 1364 55 8 295 15062 4430 53% 27 248899 2289 37%
c s 77.30 1364 51 8 546 18758 7368 51% 28 247119 2289 37%
c v 81.21 1364 51 8 546 18758 7368 51% 28 247097 2289 37%
c t 81.32 1364 51 8 546 18758 7355 51% 28 247088 2289 37%
c e 82.42 1366 51 8 546 18758 6871 51% 28 244759 1059 17%
c s 82.52 1366 51 8 546 18758 6871 51% 28 243911 1059 17%
c - 84.14 1366 51 9 546 18831 4939 65% 28 243911 1059 17%
c W 87.48 1366 48 9 605 21011 6624 68% 27 243911 1059 17%
c - 90.01 1366 46 10 748 22992 5440 69% 27 243911 1059 17%
c - 92.72 1366 39 11 772 27571 5808 70% 24 243911 1059 17%
c F 94.41 1366 40 11 836 28013 6186 70% 24 243911 1059 17%
c 3 95.71 1366 37 11 839 30001 8112 70% 23 243911 1059 17%
c p 99.29 1366 37 11 839 30001 9918 70% 23 243911 1058 17%
c } 100.00 1366 36 11 843 31006 10555 70% 23 243911 1058 17%
c [ 100.00 1366 44 11 843 31006 10555 112% 33 243911 1058 17%
c - 100.80 1366 41 12 843 32565 6689 105% 31 243908 1058 17%
c B 102.24 1366 35 12 846 36014 8667 96% 27 243908 1058 17%
c - 103.83 1366 44 13 847 37975 7381 93% 33 243908 1058 17%
c ] 106.83 1366 46 13 850 43729 11573 87% 35 243908 1058 17%
c 
c  seconds     reductions     redundant   irredundant
c           MB      restarts         trail       variables
c             level     conflicts        glue         remaining
c 
c 1 106.83 1366 46 13 850 43729 11573 87% 35 243908 1058 17%
c 
c --- [ writing output ] -----------------------------------------------------
c 
c writing simplified CNF to DIMACS file 'simp/33.cubes6100.adj.simp1'
c * 106.83 1366 46 13 850 43729 11573 87% 35 243908 1058 17%
c opening file to write 'simp/33.cubes6100.adj.simp1'
c writing 'p cnf 6160 243908' header
c closing file 'simp/33.cubes6100.adj.simp1'
c after writing 124107337 bytes 118.4 MB
c wrote 243908 clauses in 0.93 seconds process time
c 
c --- [ writing extension ] --------------------------------------------------
c 
c writing extension stack to 'simp/33.cubes6100.adj.ext1'
c opening file to write 'simp/33.cubes6100.adj.ext1'
c closing file 'simp/33.cubes6100.adj.ext1'
c after writing 81305 bytes 0.1 MB
c wrote 3606 witnesses in 0.00 seconds process time
c 
c --- [ result ] -------------------------------------------------------------
c 
s SATISFIABLE
c 
c --- [ run-time profiling ] -------------------------------------------------
c 
c process time taken by individual solving procedures
c (percentage relative to process time for solving)
c 
c        67.06   77.07% search
c        47.65   54.76% unstable
c        19.95   22.93% simplify
c        19.82   22.78% parse
c        17.63   20.27% stable
c        12.61   14.49% probe
c         3.99    4.59% vivify
c         2.08    2.39% elim
c         1.55    1.78% lucky
c         0.23    0.26% walk
c         0.19    0.22% subsume
c         0.12    0.14% ternary
c   =================================
c        87.01   80.75% solve
c 
c last line shows process time for solving
c (percentage relative to total process time)
c 
c --- [ statistics ] ---------------------------------------------------------
c 
c chronological:              8756        20.02 %  of conflicts
c conflicts:                 43729       502.57    per second
c decisions:                126615      1455.15    per second
c eliminated:                 1230        19.97 %  of all variables
c fixed:                       722        11.72 %  of all variables
c learned:                   42657        97.55 %  per conflict
c learned_lits:            8818809       100.00 %  learned literals
c minimized:                     0         0.00 %  learned literals
c shrunken:                5076366        57.56 %  learned literals
c minishrunken:             902226        10.23 %  learned literals
c propagations:            4684151         0.05 M  per second
c reduced:                   19397        44.36 %  per conflict
c rephased:                      8      5466.12    interval
c restarts:                    850        51.45    interval
c stabilizing:                   3        51.97 %  of conflicts
c substituted:                   6         0.10 %  of all variables
c subsumed:                  13936         0.42 %  of all clauses
c strengthened:               3460         0.10 %  of all clauses
c ternary:                    2289         0.55 %  of resolved
c vivified:                     34         0.00 %  of all clauses
c walked:                        1     43729.00    interval
c weakened:                   2884         3.09    average size
c 
c seconds are measured in process time for solving
c 
c --- [ resources ] ----------------------------------------------------------
c 
c total process time since initialization:       107.76    seconds
c total real time since initialization:          108.52    seconds
c maximum resident set size of process:         1596.69    MB
c 
c --- [ shutting down ] ------------------------------------------------------
c 
c exit 10
WARNING! DIMACS header mismatch: wrong number of variables.
============================[ Problem Statistics ]=============================
|                                                                             |
|  Number of variables:          3493                                         |
|  Number of clauses:          243912                                         |
|  Parse time:                   1.65 s                                       |
|  Simplification time:          0.03 s                                       |
|                                                                             |
============================[ Search Statistics ]====================================================
| Conflicts |          ORIGINAL         |          LEARNT          | Num Sols |      SUBGRAPHS      |
|           |    Vars  Clauses Literals |    Limit  Clauses Lit/Cl |          | Canonical Noncanon. |
=====================================================================================================
|       105 |    3404   243917 26820725 |     2000      105    201 |        0 |        14         5 |
|       277 |    3404   243939 26821296 |     2000      277    141 |        0 |        32        27 |
|       514 |    3404   243951 26821599 |     2000      514    144 |        0 |        33        39 |
|       940 |    3404   244040 26823723 |     2000      940    128 |        0 |        39       128 |
|      1458 |    3404   244052 26823990 |     2000     1458    127 |        0 |        39       140 |
|      3103 |    3404   244938 26843822 |     3600     2103     52 |        0 |       302      1026 |
|      4361 |    3404   245057 26846218 |     3600     3361     72 |        0 |       362      1145 |
|      6089 |    3404   245077 26846746 |     5004     3293     73 |        0 |       381      1165 |
|      8762 |    3404   245188 26849025 |     6306     3468     57 |        0 |       423      1276 |
|     14799 |    3404   247381 26899683 |     7558     6357     39 |        0 |      1052      3469 |
|     26585 |    3404   253401 27028758 |     9997     9982     58 |        0 |      2340      9489 |
|     35350 |    3404   253517 27031073 |    12410     8160     59 |        0 |      2407      9605 |
|     48395 |    3404   253588 27032342 |    14809     8204     61 |        0 |      2430      9676 |
|     68463 |    3404   254195 27045782 |    17209    12872     66 |        0 |      2677     10283 |
|     97831 |    3404   254371 27049909 |    20810    14641     61 |        0 |      2761     10459 |
|    142039 |    3404   254790 27058192 |    25618    13657     32 |        0 |      2957     10878 |
|    208618 |    3404   255685 27082981 |    30404    25422     66 |        0 |      3344     11773 |
|    308550 |    3404   257091 27115811 |    37614    25164     54 |        0 |      3996     13179 |
|    458997 |    3404   259749 27172086 |    46017    31414     55 |        0 |      5283     15837 |
|    684481 |    3404   263550 27256957 |    56818    28299     26 |        0 |      6830     19638 |
|   1023866 |    3404   270410 27416805 |    68821    56687     60 |        0 |      9691     26498 |
|   1526644 |    3404   274400 27530388 |    84415    65459     62 |        0 |     12269     30488 |
|   2278761 |    3404   278335 27651098 |   103618    70379     53 |        0 |     14996     34423 |
|   3406737 |    3404   284037 27822705 |   126425   111562     68 |        0 |     18062     40125 |
|   5096336 |    3404   290225 28012273 |   155220   118756     64 |        0 |     21291     46313 |
|   8827077 |    3404  1495850 49040939 |   204427   175904     64 |        0 |    109451   1251938 |
|  12747436 |    3404  1628534 51476996 |   246421   162257     43 |        0 |    121254   1384622 |
|  18656552 |    3404  1856138 55590776 |   298038   231990     58 |        0 |    139949   1612226 |
|  27335572 |    3404  2012889 58857997 |   361635   187207     26 |        0 |    161539   1768977 |
|  41146282 |    3404  3040196 77921154 |   443236   336718     47 |        0 |    235692   2796284 |
|  62824443 |    3355  3055503 78003908 |   538140   481583     64 |        0 |    366588   5299340 |
=====================================================================================================
Number of solutions   : 0
Canonical subgraphs   : 382740         (8 /sec)
          order  3    : 1              (inf /sec)
          order  4    : 1              (inf /sec)
          order  5    : 1              (inf /sec)
          order  6    : 1              (inf /sec)
          order  7    : 1              (inf /sec)
          order  8    : 2              (1359 /sec)
          order  9    : 6              (314 /sec)
          order 10    : 20             (86 /sec)
          order 11    : 78             (22 /sec)
          order 12    : 436            (7 /sec)
          order 13    : 2313           (5 /sec)
          order 14    : 19306          (6 /sec)
          order 15    : 333406         (9 /sec)
          order 16    : 22936          (6 /sec)
          order 17    : 3722           (5 /sec)
          order 18    : 412            (4 /sec)
          order 19    : 90             (3 /sec)
          order 20    : 5              (4 /sec)
          order 21    : 3              (5 /sec)
          order 22    : 0              (-nan /sec)
Noncanonical subgraphs: 5697260        (64 /sec)
          order  3    : 0              (-nan /sec)
          order  4    : 0              (-nan /sec)
          order  5    : 0              (-nan /sec)
          order  6    : 0              (-nan /sec)
          order  7    : 0              (-nan /sec)
          order  8    : 0              (-nan /sec)
          order  9    : 0              (-nan /sec)
          order 10    : 0              (-nan /sec)
          order 11    : 0              (-nan /sec)
          order 12    : 0              (-nan /sec)
          order 13    : 9187           (8032 /sec)
          order 14    : 42446          (2422 /sec)
          order 15    : 792321         (358 /sec)
          order 16    : 4821302        (56 /sec)
          order 17    : 31057          (52 /sec)
          order 18    : 899            (48 /sec)
          order 19    : 44             (12 /sec)
          order 20    : 1              (1326 /sec)
          order 21    : 0              (-nan /sec)
Canonicity checking   : 46988.1 s
Noncanonicity checking: 88900.6 s
Total canonicity time : 135889 s
database reductions   : 459
restarts              : 82429
conflicts             : 64201121       (348 /sec)
decisions             : 85271325       (0.00 % random) (463 /sec)
propagations          : 3349895826     (18170 /sec)
conflict literals     : 7144027810     (57.22 % deleted)
actual reward         : 0.235307
Memory used           : 1784.00 MB
CPU time              : 184366 s

UNSATISFIABLE
